p cnf 10 50
2 -7 6 0
9 3 -2 0
-1 7 -4 0
-9 1 -7 0
4 10 -7 0
4 -5 -2 0
5 -3 4 0
-8 -10 -2 0
-9 10 6 0
-3 -1 -7 0
-7 -5 -8 0
1 5 8 0
-7 -6 -2 0
1 6 -4 0
6 -7 -9 0
7 3 1 0
1 5 -6 0
-4 -8 -1 0
-5 -9 4 0
-10 -1 -3 0
-5 -3 6 0
-3 4 5 0
-7 3 -4 0
9 6 8 0
-3 7 2 0
6 -2 -7 0
-7 3 5 0
4 6 -3 0
1 10 2 0
7 2 -6 0
-10 8 2 0
-8 9 -7 0
-9 2 -5 0
4 -6 5 0
-4 8 9 0
10 2 -6 0
8 1 3 0
9 -6 -10 0
-2 4 -10 0
-9 2 -10 0
-3 -5 4 0
-8 -7 1 0
10 -2 3 0
-5 4 -8 0
-1 9 8 0
-10 -1 8 0
8 9 -10 0
-6 -4 -9 0
6 9 -5 0
-7 2 5 0
